NAME 
* Max problem is converted into Min one
ROWS
 N  OBJ
 E  first_component_s_0_k_0
 E  first_component_s_0_k_1
 E  first_component_s_0_k_2
 E  first_component_s_1_k_0
 E  first_component_s_1_k_1
 E  first_component_s_1_k_2
 E  first_component_s_2_k_0
 E  first_component_s_2_k_1
 E  first_component_s_2_k_2
 E  first_component_s_3_k_0
 E  first_component_s_3_k_1
 E  first_component_s_3_k_2
 E  first_component_s_4_k_0
 E  first_component_s_4_k_1
 E  first_component_s_4_k_2
 E  first_component_s_5_k_0
 E  first_component_s_5_k_1
 E  first_component_s_5_k_2
 E  first_component_s_6_k_0
 E  first_component_s_6_k_1
 E  first_component_s_6_k_2
 E  first_component_s_7_k_0
 E  first_component_s_7_k_1
 E  first_component_s_7_k_2
 E  first_component_s_8_k_0
 E  first_component_s_8_k_1
 E  first_component_s_8_k_2
 E  first_component_s_9_k_1
 E  first_component_s_9_k_2
 E  first_component_s_10_k_1
 E  first_component_s_10_k_2
 E  first_component_s_11_k_1
 E  first_component_s_11_k_2
 E  first_component_s_12_k_1
 E  first_component_s_12_k_2
 E  first_component_s_13_k_1
 E  first_component_s_13_k_2
 E  first_component_s_14_k_1
 E  first_component_s_14_k_2
 E  first_component_s_15_k_1
 E  first_component_s_15_k_2
 E  first_component_s_16_k_1
 E  first_component_s_16_k_2
 E  first_component_s_17_k_1
 E  first_component_s_17_k_2
 E  first_component_s_18_k_1
 E  first_component_s_18_k_2
 E  first_component_s_19_k_1
 E  first_component_s_19_k_2
 E  first_component_s_20_k_1
 E  first_component_s_20_k_2
 E  first_component_s_21_k_1
 E  first_component_s_21_k_2
 E  first_component_s_22_k_1
 E  first_component_s_22_k_2
 E  first_component_s_23_k_1
 E  first_component_s_23_k_2
 E  first_component_s_24_k_1
 E  first_component_s_24_k_2
 E  first_component_s_25_k_1
 E  first_component_s_25_k_2
 E  first_component_s_26_k_1
 E  first_component_s_26_k_2
 E  prob_chain_j_1_s_0
 E  prob_chain_j_2_s_0
 E  prob_chain_j_1_s_1
 E  prob_chain_j_2_s_1
 E  prob_chain_j_1_s_2
 E  prob_chain_j_2_s_2
 E  prob_chain_j_1_s_3
 E  prob_chain_j_2_s_3
 E  prob_chain_j_1_s_4
 E  prob_chain_j_2_s_4
 E  prob_chain_j_1_s_5
 E  prob_chain_j_2_s_5
 E  prob_chain_j_1_s_6
 E  prob_chain_j_2_s_6
 E  prob_chain_j_1_s_7
 E  prob_chain_j_2_s_7
 E  prob_chain_j_1_s_8
 E  prob_chain_j_2_s_8
 E  prob_chain_j_1_s_9
 E  prob_chain_j_2_s_9
 E  prob_chain_j_1_s_10
 E  prob_chain_j_2_s_10
 E  prob_chain_j_1_s_11
 E  prob_chain_j_2_s_11
 E  prob_chain_j_1_s_12
 E  prob_chain_j_2_s_12
 E  prob_chain_j_1_s_13
 E  prob_chain_j_2_s_13
 E  prob_chain_j_1_s_14
 E  prob_chain_j_2_s_14
 E  prob_chain_j_1_s_15
 E  prob_chain_j_2_s_15
 E  prob_chain_j_1_s_16
 E  prob_chain_j_2_s_16
 E  prob_chain_j_1_s_17
 E  prob_chain_j_2_s_17
 E  prob_chain_j_1_s_18
 E  prob_chain_j_2_s_18
 E  prob_chain_j_1_s_19
 E  prob_chain_j_2_s_19
 E  prob_chain_j_1_s_20
 E  prob_chain_j_2_s_20
 E  prob_chain_j_1_s_21
 E  prob_chain_j_2_s_21
 E  prob_chain_j_1_s_22
 E  prob_chain_j_2_s_22
 E  prob_chain_j_1_s_23
 E  prob_chain_j_2_s_23
 E  prob_chain_j_1_s_24
 E  prob_chain_j_2_s_24
 E  prob_chain_j_1_s_25
 E  prob_chain_j_2_s_25
 E  prob_chain_j_1_s_26
 E  prob_chain_j_2_s_26
COLUMNS
    MARKER    'MARKER'                 'INTORG'
    allocVar_j_0_k_0  first_component_s_0_k_0  -1
    allocVar_j_0_k_0  first_component_s_1_k_0  -1
    allocVar_j_0_k_0  first_component_s_2_k_0  -1
    allocVar_j_0_k_0  first_component_s_3_k_0  -1
    allocVar_j_0_k_0  first_component_s_4_k_0  -1
    allocVar_j_0_k_0  first_component_s_5_k_0  -1
    allocVar_j_0_k_0  first_component_s_6_k_0  -1
    allocVar_j_0_k_0  first_component_s_7_k_0  -1
    allocVar_j_0_k_0  first_component_s_8_k_0  -1
    MARKER    'MARKER'                 'INTEND'
    cum_prob_j_0_k_0_s_0  first_component_s_0_k_0  1
    cum_prob_j_0_k_0_s_0  prob_chain_j_1_s_0  1
    cum_prob_j_0_k_0_s_1  first_component_s_1_k_0  1
    cum_prob_j_0_k_0_s_1  prob_chain_j_1_s_1  1
    cum_prob_j_0_k_0_s_2  first_component_s_2_k_0  1
    cum_prob_j_0_k_0_s_2  prob_chain_j_1_s_2  1
    cum_prob_j_0_k_0_s_3  first_component_s_3_k_0  1
    cum_prob_j_0_k_0_s_3  prob_chain_j_1_s_3  1
    cum_prob_j_0_k_0_s_4  first_component_s_4_k_0  1
    cum_prob_j_0_k_0_s_4  prob_chain_j_1_s_4  1
    cum_prob_j_0_k_0_s_5  first_component_s_5_k_0  1
    cum_prob_j_0_k_0_s_5  prob_chain_j_1_s_5  1
    cum_prob_j_0_k_0_s_6  first_component_s_6_k_0  1
    cum_prob_j_0_k_0_s_6  prob_chain_j_1_s_6  1
    cum_prob_j_0_k_0_s_7  first_component_s_7_k_0  1
    cum_prob_j_0_k_0_s_7  prob_chain_j_1_s_7  1
    cum_prob_j_0_k_0_s_8  first_component_s_8_k_0  1
    cum_prob_j_0_k_0_s_8  prob_chain_j_1_s_8  1
    cum_prob_j_0_k_0_s_9  OBJ       0
    cum_prob_j_0_k_0_s_10  OBJ       0
    cum_prob_j_0_k_0_s_11  OBJ       0
    cum_prob_j_0_k_0_s_12  OBJ       0
    cum_prob_j_0_k_0_s_13  OBJ       0
    cum_prob_j_0_k_0_s_14  OBJ       0
    cum_prob_j_0_k_0_s_15  OBJ       0
    cum_prob_j_0_k_0_s_16  OBJ       0
    cum_prob_j_0_k_0_s_17  OBJ       0
    cum_prob_j_0_k_0_s_18  OBJ       0
    cum_prob_j_0_k_0_s_19  OBJ       0
    cum_prob_j_0_k_0_s_20  OBJ       0
    cum_prob_j_0_k_0_s_21  OBJ       0
    cum_prob_j_0_k_0_s_22  OBJ       0
    cum_prob_j_0_k_0_s_23  OBJ       0
    cum_prob_j_0_k_0_s_24  OBJ       0
    cum_prob_j_0_k_0_s_25  OBJ       0
    cum_prob_j_0_k_0_s_26  OBJ       0
    MARKER    'MARKER'                 'INTORG'
    allocVar_j_0_k_1  first_component_s_0_k_1  -9.4027308067866744e-02
    allocVar_j_0_k_1  first_component_s_1_k_1  -9.4027308067866744e-02
    allocVar_j_0_k_1  first_component_s_2_k_1  -9.4027308067866744e-02
    allocVar_j_0_k_1  first_component_s_3_k_1  -9.4027308067866744e-02
    allocVar_j_0_k_1  first_component_s_4_k_1  -9.4027308067866744e-02
    allocVar_j_0_k_1  first_component_s_5_k_1  -9.4027308067866744e-02
    allocVar_j_0_k_1  first_component_s_6_k_1  -9.4027308067866744e-02
    allocVar_j_0_k_1  first_component_s_7_k_1  -9.4027308067866744e-02
    allocVar_j_0_k_1  first_component_s_8_k_1  -9.4027308067866744e-02
    allocVar_j_0_k_1  first_component_s_9_k_1  -4.2522283516299719e-01
    allocVar_j_0_k_1  first_component_s_10_k_1  -4.2522283516299719e-01
    allocVar_j_0_k_1  first_component_s_11_k_1  -4.2522283516299719e-01
    allocVar_j_0_k_1  first_component_s_12_k_1  -4.2522283516299719e-01
    allocVar_j_0_k_1  first_component_s_13_k_1  -4.2522283516299719e-01
    allocVar_j_0_k_1  first_component_s_14_k_1  -4.2522283516299719e-01
    allocVar_j_0_k_1  first_component_s_15_k_1  -4.2522283516299719e-01
    allocVar_j_0_k_1  first_component_s_16_k_1  -4.2522283516299719e-01
    allocVar_j_0_k_1  first_component_s_17_k_1  -4.2522283516299719e-01
    allocVar_j_0_k_1  first_component_s_18_k_1  -4.8074985676913606e-01
    allocVar_j_0_k_1  first_component_s_19_k_1  -4.8074985676913606e-01
    allocVar_j_0_k_1  first_component_s_20_k_1  -4.8074985676913606e-01
    allocVar_j_0_k_1  first_component_s_21_k_1  -4.8074985676913606e-01
    allocVar_j_0_k_1  first_component_s_22_k_1  -4.8074985676913606e-01
    allocVar_j_0_k_1  first_component_s_23_k_1  -4.8074985676913606e-01
    allocVar_j_0_k_1  first_component_s_24_k_1  -4.8074985676913606e-01
    allocVar_j_0_k_1  first_component_s_25_k_1  -4.8074985676913606e-01
    allocVar_j_0_k_1  first_component_s_26_k_1  -4.8074985676913606e-01
    MARKER    'MARKER'                 'INTEND'
    cum_prob_j_0_k_1_s_0  first_component_s_0_k_1  1
    cum_prob_j_0_k_1_s_0  prob_chain_j_1_s_0  1
    cum_prob_j_0_k_1_s_1  first_component_s_1_k_1  1
    cum_prob_j_0_k_1_s_1  prob_chain_j_1_s_1  1
    cum_prob_j_0_k_1_s_2  first_component_s_2_k_1  1
    cum_prob_j_0_k_1_s_2  prob_chain_j_1_s_2  1
    cum_prob_j_0_k_1_s_3  first_component_s_3_k_1  1
    cum_prob_j_0_k_1_s_3  prob_chain_j_1_s_3  1
    cum_prob_j_0_k_1_s_4  first_component_s_4_k_1  1
    cum_prob_j_0_k_1_s_4  prob_chain_j_1_s_4  1
    cum_prob_j_0_k_1_s_5  first_component_s_5_k_1  1
    cum_prob_j_0_k_1_s_5  prob_chain_j_1_s_5  1
    cum_prob_j_0_k_1_s_6  first_component_s_6_k_1  1
    cum_prob_j_0_k_1_s_6  prob_chain_j_1_s_6  1
    cum_prob_j_0_k_1_s_7  first_component_s_7_k_1  1
    cum_prob_j_0_k_1_s_7  prob_chain_j_1_s_7  1
    cum_prob_j_0_k_1_s_8  first_component_s_8_k_1  1
    cum_prob_j_0_k_1_s_8  prob_chain_j_1_s_8  1
    cum_prob_j_0_k_1_s_9  first_component_s_9_k_1  1
    cum_prob_j_0_k_1_s_9  prob_chain_j_1_s_9  1
    cum_prob_j_0_k_1_s_10  first_component_s_10_k_1  1
    cum_prob_j_0_k_1_s_10  prob_chain_j_1_s_10  1
    cum_prob_j_0_k_1_s_11  first_component_s_11_k_1  1
    cum_prob_j_0_k_1_s_11  prob_chain_j_1_s_11  1
    cum_prob_j_0_k_1_s_12  first_component_s_12_k_1  1
    cum_prob_j_0_k_1_s_12  prob_chain_j_1_s_12  1
    cum_prob_j_0_k_1_s_13  first_component_s_13_k_1  1
    cum_prob_j_0_k_1_s_13  prob_chain_j_1_s_13  1
    cum_prob_j_0_k_1_s_14  first_component_s_14_k_1  1
    cum_prob_j_0_k_1_s_14  prob_chain_j_1_s_14  1
    cum_prob_j_0_k_1_s_15  first_component_s_15_k_1  1
    cum_prob_j_0_k_1_s_15  prob_chain_j_1_s_15  1
    cum_prob_j_0_k_1_s_16  first_component_s_16_k_1  1
    cum_prob_j_0_k_1_s_16  prob_chain_j_1_s_16  1
    cum_prob_j_0_k_1_s_17  first_component_s_17_k_1  1
    cum_prob_j_0_k_1_s_17  prob_chain_j_1_s_17  1
    cum_prob_j_0_k_1_s_18  first_component_s_18_k_1  1
    cum_prob_j_0_k_1_s_18  prob_chain_j_1_s_18  1
    cum_prob_j_0_k_1_s_19  first_component_s_19_k_1  1
    cum_prob_j_0_k_1_s_19  prob_chain_j_1_s_19  1
    cum_prob_j_0_k_1_s_20  first_component_s_20_k_1  1
    cum_prob_j_0_k_1_s_20  prob_chain_j_1_s_20  1
    cum_prob_j_0_k_1_s_21  first_component_s_21_k_1  1
    cum_prob_j_0_k_1_s_21  prob_chain_j_1_s_21  1
    cum_prob_j_0_k_1_s_22  first_component_s_22_k_1  1
    cum_prob_j_0_k_1_s_22  prob_chain_j_1_s_22  1
    cum_prob_j_0_k_1_s_23  first_component_s_23_k_1  1
    cum_prob_j_0_k_1_s_23  prob_chain_j_1_s_23  1
    cum_prob_j_0_k_1_s_24  first_component_s_24_k_1  1
    cum_prob_j_0_k_1_s_24  prob_chain_j_1_s_24  1
    cum_prob_j_0_k_1_s_25  first_component_s_25_k_1  1
    cum_prob_j_0_k_1_s_25  prob_chain_j_1_s_25  1
    cum_prob_j_0_k_1_s_26  first_component_s_26_k_1  1
    cum_prob_j_0_k_1_s_26  prob_chain_j_1_s_26  1
    MARKER    'MARKER'                 'INTORG'
    allocVar_j_0_k_2  first_component_s_0_k_2  -1.5981898896290158e-02
    allocVar_j_0_k_2  first_component_s_1_k_2  -1.5981898896290158e-02
    allocVar_j_0_k_2  first_component_s_2_k_2  -1.5981898896290158e-02
    allocVar_j_0_k_2  first_component_s_3_k_2  -1.5981898896290158e-02
    allocVar_j_0_k_2  first_component_s_4_k_2  -1.5981898896290158e-02
    allocVar_j_0_k_2  first_component_s_5_k_2  -1.5981898896290158e-02
    allocVar_j_0_k_2  first_component_s_6_k_2  -1.5981898896290158e-02
    allocVar_j_0_k_2  first_component_s_7_k_2  -1.5981898896290158e-02
    allocVar_j_0_k_2  first_component_s_8_k_2  -1.5981898896290158e-02
    allocVar_j_0_k_2  first_component_s_9_k_2  -2.2087527273482183e-01
    allocVar_j_0_k_2  first_component_s_10_k_2  -2.2087527273482183e-01
    allocVar_j_0_k_2  first_component_s_11_k_2  -2.2087527273482183e-01
    allocVar_j_0_k_2  first_component_s_12_k_2  -2.2087527273482183e-01
    allocVar_j_0_k_2  first_component_s_13_k_2  -2.2087527273482183e-01
    allocVar_j_0_k_2  first_component_s_14_k_2  -2.2087527273482183e-01
    allocVar_j_0_k_2  first_component_s_15_k_2  -2.2087527273482183e-01
    allocVar_j_0_k_2  first_component_s_16_k_2  -2.2087527273482183e-01
    allocVar_j_0_k_2  first_component_s_17_k_2  -2.2087527273482183e-01
    allocVar_j_0_k_2  first_component_s_18_k_2  -7.6314282836888803e-01
    allocVar_j_0_k_2  first_component_s_19_k_2  -7.6314282836888803e-01
    allocVar_j_0_k_2  first_component_s_20_k_2  -7.6314282836888803e-01
    allocVar_j_0_k_2  first_component_s_21_k_2  -7.6314282836888803e-01
    allocVar_j_0_k_2  first_component_s_22_k_2  -7.6314282836888803e-01
    allocVar_j_0_k_2  first_component_s_23_k_2  -7.6314282836888803e-01
    allocVar_j_0_k_2  first_component_s_24_k_2  -7.6314282836888803e-01
    allocVar_j_0_k_2  first_component_s_25_k_2  -7.6314282836888803e-01
    allocVar_j_0_k_2  first_component_s_26_k_2  -7.6314282836888803e-01
    MARKER    'MARKER'                 'INTEND'
    cum_prob_j_0_k_2_s_0  first_component_s_0_k_2  1
    cum_prob_j_0_k_2_s_0  prob_chain_j_1_s_0  1
    cum_prob_j_0_k_2_s_1  first_component_s_1_k_2  1
    cum_prob_j_0_k_2_s_1  prob_chain_j_1_s_1  1
    cum_prob_j_0_k_2_s_2  first_component_s_2_k_2  1
    cum_prob_j_0_k_2_s_2  prob_chain_j_1_s_2  1
    cum_prob_j_0_k_2_s_3  first_component_s_3_k_2  1
    cum_prob_j_0_k_2_s_3  prob_chain_j_1_s_3  1
    cum_prob_j_0_k_2_s_4  first_component_s_4_k_2  1
    cum_prob_j_0_k_2_s_4  prob_chain_j_1_s_4  1
    cum_prob_j_0_k_2_s_5  first_component_s_5_k_2  1
    cum_prob_j_0_k_2_s_5  prob_chain_j_1_s_5  1
    cum_prob_j_0_k_2_s_6  first_component_s_6_k_2  1
    cum_prob_j_0_k_2_s_6  prob_chain_j_1_s_6  1
    cum_prob_j_0_k_2_s_7  first_component_s_7_k_2  1
    cum_prob_j_0_k_2_s_7  prob_chain_j_1_s_7  1
    cum_prob_j_0_k_2_s_8  first_component_s_8_k_2  1
    cum_prob_j_0_k_2_s_8  prob_chain_j_1_s_8  1
    cum_prob_j_0_k_2_s_9  first_component_s_9_k_2  1
    cum_prob_j_0_k_2_s_9  prob_chain_j_1_s_9  1
    cum_prob_j_0_k_2_s_10  first_component_s_10_k_2  1
    cum_prob_j_0_k_2_s_10  prob_chain_j_1_s_10  1
    cum_prob_j_0_k_2_s_11  first_component_s_11_k_2  1
    cum_prob_j_0_k_2_s_11  prob_chain_j_1_s_11  1
    cum_prob_j_0_k_2_s_12  first_component_s_12_k_2  1
    cum_prob_j_0_k_2_s_12  prob_chain_j_1_s_12  1
    cum_prob_j_0_k_2_s_13  first_component_s_13_k_2  1
    cum_prob_j_0_k_2_s_13  prob_chain_j_1_s_13  1
    cum_prob_j_0_k_2_s_14  first_component_s_14_k_2  1
    cum_prob_j_0_k_2_s_14  prob_chain_j_1_s_14  1
    cum_prob_j_0_k_2_s_15  first_component_s_15_k_2  1
    cum_prob_j_0_k_2_s_15  prob_chain_j_1_s_15  1
    cum_prob_j_0_k_2_s_16  first_component_s_16_k_2  1
    cum_prob_j_0_k_2_s_16  prob_chain_j_1_s_16  1
    cum_prob_j_0_k_2_s_17  first_component_s_17_k_2  1
    cum_prob_j_0_k_2_s_17  prob_chain_j_1_s_17  1
    cum_prob_j_0_k_2_s_18  first_component_s_18_k_2  1
    cum_prob_j_0_k_2_s_18  prob_chain_j_1_s_18  1
    cum_prob_j_0_k_2_s_19  first_component_s_19_k_2  1
    cum_prob_j_0_k_2_s_19  prob_chain_j_1_s_19  1
    cum_prob_j_0_k_2_s_20  first_component_s_20_k_2  1
    cum_prob_j_0_k_2_s_20  prob_chain_j_1_s_20  1
    cum_prob_j_0_k_2_s_21  first_component_s_21_k_2  1
    cum_prob_j_0_k_2_s_21  prob_chain_j_1_s_21  1
    cum_prob_j_0_k_2_s_22  first_component_s_22_k_2  1
    cum_prob_j_0_k_2_s_22  prob_chain_j_1_s_22  1
    cum_prob_j_0_k_2_s_23  first_component_s_23_k_2  1
    cum_prob_j_0_k_2_s_23  prob_chain_j_1_s_23  1
    cum_prob_j_0_k_2_s_24  first_component_s_24_k_2  1
    cum_prob_j_0_k_2_s_24  prob_chain_j_1_s_24  1
    cum_prob_j_0_k_2_s_25  first_component_s_25_k_2  1
    cum_prob_j_0_k_2_s_25  prob_chain_j_1_s_25  1
    cum_prob_j_0_k_2_s_26  first_component_s_26_k_2  1
    cum_prob_j_0_k_2_s_26  prob_chain_j_1_s_26  1
    MARKER    'MARKER'                 'INTORG'
    allocVar_j_1_k_0  OBJ       0
    MARKER    'MARKER'                 'INTEND'
    cum_prob_j_1_k_0_s_0  prob_chain_j_1_s_0  -1
    cum_prob_j_1_k_0_s_0  prob_chain_j_2_s_0  1
    cum_prob_j_1_k_0_s_1  prob_chain_j_1_s_1  -1
    cum_prob_j_1_k_0_s_1  prob_chain_j_2_s_1  1
    cum_prob_j_1_k_0_s_2  prob_chain_j_1_s_2  -1
    cum_prob_j_1_k_0_s_2  prob_chain_j_2_s_2  1
    cum_prob_j_1_k_0_s_3  OBJ       0
    cum_prob_j_1_k_0_s_4  OBJ       0
    cum_prob_j_1_k_0_s_5  OBJ       0
    cum_prob_j_1_k_0_s_6  OBJ       0
    cum_prob_j_1_k_0_s_7  OBJ       0
    cum_prob_j_1_k_0_s_8  OBJ       0
    cum_prob_j_1_k_0_s_9  prob_chain_j_1_s_9  -1
    cum_prob_j_1_k_0_s_9  prob_chain_j_2_s_9  1
    cum_prob_j_1_k_0_s_10  prob_chain_j_1_s_10  -1
    cum_prob_j_1_k_0_s_10  prob_chain_j_2_s_10  1
    cum_prob_j_1_k_0_s_11  prob_chain_j_1_s_11  -1
    cum_prob_j_1_k_0_s_11  prob_chain_j_2_s_11  1
    cum_prob_j_1_k_0_s_12  OBJ       0
    cum_prob_j_1_k_0_s_13  OBJ       0
    cum_prob_j_1_k_0_s_14  OBJ       0
    cum_prob_j_1_k_0_s_15  OBJ       0
    cum_prob_j_1_k_0_s_16  OBJ       0
    cum_prob_j_1_k_0_s_17  OBJ       0
    cum_prob_j_1_k_0_s_18  prob_chain_j_1_s_18  -1
    cum_prob_j_1_k_0_s_18  prob_chain_j_2_s_18  1
    cum_prob_j_1_k_0_s_19  prob_chain_j_1_s_19  -1
    cum_prob_j_1_k_0_s_19  prob_chain_j_2_s_19  1
    cum_prob_j_1_k_0_s_20  prob_chain_j_1_s_20  -1
    cum_prob_j_1_k_0_s_20  prob_chain_j_2_s_20  1
    cum_prob_j_1_k_0_s_21  OBJ       0
    cum_prob_j_1_k_0_s_22  OBJ       0
    cum_prob_j_1_k_0_s_23  OBJ       0
    cum_prob_j_1_k_0_s_24  OBJ       0
    cum_prob_j_1_k_0_s_25  OBJ       0
    cum_prob_j_1_k_0_s_26  OBJ       0
    MARKER    'MARKER'                 'INTORG'
    allocVar_j_1_k_1  OBJ       0
    MARKER    'MARKER'                 'INTEND'
    cum_prob_j_1_k_1_s_0  prob_chain_j_1_s_0  -1.0635208223532498e+01
    cum_prob_j_1_k_1_s_0  prob_chain_j_2_s_0  1
    cum_prob_j_1_k_1_s_1  prob_chain_j_1_s_1  -1.0635208223532498e+01
    cum_prob_j_1_k_1_s_1  prob_chain_j_2_s_1  1
    cum_prob_j_1_k_1_s_2  prob_chain_j_1_s_2  -1.0635208223532498e+01
    cum_prob_j_1_k_1_s_2  prob_chain_j_2_s_2  1
    cum_prob_j_1_k_1_s_3  prob_chain_j_1_s_3  -2.3517081334935321e+00
    cum_prob_j_1_k_1_s_3  prob_chain_j_2_s_3  1
    cum_prob_j_1_k_1_s_4  prob_chain_j_1_s_4  -2.3517081334935321e+00
    cum_prob_j_1_k_1_s_4  prob_chain_j_2_s_4  1
    cum_prob_j_1_k_1_s_5  prob_chain_j_1_s_5  -2.3517081334935321e+00
    cum_prob_j_1_k_1_s_5  prob_chain_j_2_s_5  1
    cum_prob_j_1_k_1_s_6  prob_chain_j_1_s_6  -2.0800838230519045e+00
    cum_prob_j_1_k_1_s_6  prob_chain_j_2_s_6  1
    cum_prob_j_1_k_1_s_7  prob_chain_j_1_s_7  -2.0800838230519045e+00
    cum_prob_j_1_k_1_s_7  prob_chain_j_2_s_7  1
    cum_prob_j_1_k_1_s_8  prob_chain_j_1_s_8  -2.0800838230519045e+00
    cum_prob_j_1_k_1_s_8  prob_chain_j_2_s_8  1
    cum_prob_j_1_k_1_s_9  prob_chain_j_1_s_9  -1.0635208223532498e+01
    cum_prob_j_1_k_1_s_9  prob_chain_j_2_s_9  1
    cum_prob_j_1_k_1_s_10  prob_chain_j_1_s_10  -1.0635208223532498e+01
    cum_prob_j_1_k_1_s_10  prob_chain_j_2_s_10  1
    cum_prob_j_1_k_1_s_11  prob_chain_j_1_s_11  -1.0635208223532498e+01
    cum_prob_j_1_k_1_s_11  prob_chain_j_2_s_11  1
    cum_prob_j_1_k_1_s_12  prob_chain_j_1_s_12  -2.3517081334935321e+00
    cum_prob_j_1_k_1_s_12  prob_chain_j_2_s_12  1
    cum_prob_j_1_k_1_s_13  prob_chain_j_1_s_13  -2.3517081334935321e+00
    cum_prob_j_1_k_1_s_13  prob_chain_j_2_s_13  1
    cum_prob_j_1_k_1_s_14  prob_chain_j_1_s_14  -2.3517081334935321e+00
    cum_prob_j_1_k_1_s_14  prob_chain_j_2_s_14  1
    cum_prob_j_1_k_1_s_15  prob_chain_j_1_s_15  -2.0800838230519045e+00
    cum_prob_j_1_k_1_s_15  prob_chain_j_2_s_15  1
    cum_prob_j_1_k_1_s_16  prob_chain_j_1_s_16  -2.0800838230519045e+00
    cum_prob_j_1_k_1_s_16  prob_chain_j_2_s_16  1
    cum_prob_j_1_k_1_s_17  prob_chain_j_1_s_17  -2.0800838230519045e+00
    cum_prob_j_1_k_1_s_17  prob_chain_j_2_s_17  1
    cum_prob_j_1_k_1_s_18  prob_chain_j_1_s_18  -1.0635208223532498e+01
    cum_prob_j_1_k_1_s_18  prob_chain_j_2_s_18  1
    cum_prob_j_1_k_1_s_19  prob_chain_j_1_s_19  -1.0635208223532498e+01
    cum_prob_j_1_k_1_s_19  prob_chain_j_2_s_19  1
    cum_prob_j_1_k_1_s_20  prob_chain_j_1_s_20  -1.0635208223532498e+01
    cum_prob_j_1_k_1_s_20  prob_chain_j_2_s_20  1
    cum_prob_j_1_k_1_s_21  prob_chain_j_1_s_21  -2.3517081334935321e+00
    cum_prob_j_1_k_1_s_21  prob_chain_j_2_s_21  1
    cum_prob_j_1_k_1_s_22  prob_chain_j_1_s_22  -2.3517081334935321e+00
    cum_prob_j_1_k_1_s_22  prob_chain_j_2_s_22  1
    cum_prob_j_1_k_1_s_23  prob_chain_j_1_s_23  -2.3517081334935321e+00
    cum_prob_j_1_k_1_s_23  prob_chain_j_2_s_23  1
    cum_prob_j_1_k_1_s_24  prob_chain_j_1_s_24  -2.0800838230519045e+00
    cum_prob_j_1_k_1_s_24  prob_chain_j_2_s_24  1
    cum_prob_j_1_k_1_s_25  prob_chain_j_1_s_25  -2.0800838230519045e+00
    cum_prob_j_1_k_1_s_25  prob_chain_j_2_s_25  1
    cum_prob_j_1_k_1_s_26  prob_chain_j_1_s_26  -2.0800838230519045e+00
    cum_prob_j_1_k_1_s_26  prob_chain_j_2_s_26  1
    MARKER    'MARKER'                 'INTORG'
    allocVar_j_1_k_2  OBJ       0
    MARKER    'MARKER'                 'INTEND'
    cum_prob_j_1_k_2_s_0  prob_chain_j_1_s_0  -6.2570787519631210e+01
    cum_prob_j_1_k_2_s_0  prob_chain_j_2_s_0  1
    cum_prob_j_1_k_2_s_1  prob_chain_j_1_s_1  -6.2570787519631210e+01
    cum_prob_j_1_k_2_s_1  prob_chain_j_2_s_1  1
    cum_prob_j_1_k_2_s_2  prob_chain_j_1_s_2  -6.2570787519631210e+01
    cum_prob_j_1_k_2_s_2  prob_chain_j_2_s_2  1
    cum_prob_j_1_k_2_s_3  prob_chain_j_1_s_3  -4.5274420609344483e+00
    cum_prob_j_1_k_2_s_3  prob_chain_j_2_s_3  1
    cum_prob_j_1_k_2_s_4  prob_chain_j_1_s_4  -4.5274420609344483e+00
    cum_prob_j_1_k_2_s_4  prob_chain_j_2_s_4  1
    cum_prob_j_1_k_2_s_5  prob_chain_j_1_s_5  -4.5274420609344483e+00
    cum_prob_j_1_k_2_s_5  prob_chain_j_2_s_5  1
    cum_prob_j_1_k_2_s_6  prob_chain_j_1_s_6  -1.3103706971044482e+00
    cum_prob_j_1_k_2_s_6  prob_chain_j_2_s_6  1
    cum_prob_j_1_k_2_s_7  prob_chain_j_1_s_7  -1.3103706971044482e+00
    cum_prob_j_1_k_2_s_7  prob_chain_j_2_s_7  1
    cum_prob_j_1_k_2_s_8  prob_chain_j_1_s_8  -1.3103706971044482e+00
    cum_prob_j_1_k_2_s_8  prob_chain_j_2_s_8  1
    cum_prob_j_1_k_2_s_9  prob_chain_j_1_s_9  -6.2570787519631210e+01
    cum_prob_j_1_k_2_s_9  prob_chain_j_2_s_9  1
    cum_prob_j_1_k_2_s_10  prob_chain_j_1_s_10  -6.2570787519631210e+01
    cum_prob_j_1_k_2_s_10  prob_chain_j_2_s_10  1
    cum_prob_j_1_k_2_s_11  prob_chain_j_1_s_11  -6.2570787519631210e+01
    cum_prob_j_1_k_2_s_11  prob_chain_j_2_s_11  1
    cum_prob_j_1_k_2_s_12  prob_chain_j_1_s_12  -4.5274420609344483e+00
    cum_prob_j_1_k_2_s_12  prob_chain_j_2_s_12  1
    cum_prob_j_1_k_2_s_13  prob_chain_j_1_s_13  -4.5274420609344483e+00
    cum_prob_j_1_k_2_s_13  prob_chain_j_2_s_13  1
    cum_prob_j_1_k_2_s_14  prob_chain_j_1_s_14  -4.5274420609344483e+00
    cum_prob_j_1_k_2_s_14  prob_chain_j_2_s_14  1
    cum_prob_j_1_k_2_s_15  prob_chain_j_1_s_15  -1.3103706971044482e+00
    cum_prob_j_1_k_2_s_15  prob_chain_j_2_s_15  1
    cum_prob_j_1_k_2_s_16  prob_chain_j_1_s_16  -1.3103706971044482e+00
    cum_prob_j_1_k_2_s_16  prob_chain_j_2_s_16  1
    cum_prob_j_1_k_2_s_17  prob_chain_j_1_s_17  -1.3103706971044482e+00
    cum_prob_j_1_k_2_s_17  prob_chain_j_2_s_17  1
    cum_prob_j_1_k_2_s_18  prob_chain_j_1_s_18  -6.2570787519631210e+01
    cum_prob_j_1_k_2_s_18  prob_chain_j_2_s_18  1
    cum_prob_j_1_k_2_s_19  prob_chain_j_1_s_19  -6.2570787519631210e+01
    cum_prob_j_1_k_2_s_19  prob_chain_j_2_s_19  1
    cum_prob_j_1_k_2_s_20  prob_chain_j_1_s_20  -6.2570787519631210e+01
    cum_prob_j_1_k_2_s_20  prob_chain_j_2_s_20  1
    cum_prob_j_1_k_2_s_21  prob_chain_j_1_s_21  -4.5274420609344483e+00
    cum_prob_j_1_k_2_s_21  prob_chain_j_2_s_21  1
    cum_prob_j_1_k_2_s_22  prob_chain_j_1_s_22  -4.5274420609344483e+00
    cum_prob_j_1_k_2_s_22  prob_chain_j_2_s_22  1
    cum_prob_j_1_k_2_s_23  prob_chain_j_1_s_23  -4.5274420609344483e+00
    cum_prob_j_1_k_2_s_23  prob_chain_j_2_s_23  1
    cum_prob_j_1_k_2_s_24  prob_chain_j_1_s_24  -1.3103706971044482e+00
    cum_prob_j_1_k_2_s_24  prob_chain_j_2_s_24  1
    cum_prob_j_1_k_2_s_25  prob_chain_j_1_s_25  -1.3103706971044482e+00
    cum_prob_j_1_k_2_s_25  prob_chain_j_2_s_25  1
    cum_prob_j_1_k_2_s_26  prob_chain_j_1_s_26  -1.3103706971044482e+00
    cum_prob_j_1_k_2_s_26  prob_chain_j_2_s_26  1
    MARKER    'MARKER'                 'INTORG'
    allocVar_j_2_k_0  OBJ       0
    MARKER    'MARKER'                 'INTEND'
    cum_prob_j_2_k_0_s_0  OBJ       -1
    cum_prob_j_2_k_0_s_0  prob_chain_j_2_s_0  -1
    cum_prob_j_2_k_0_s_1  OBJ       -1
    cum_prob_j_2_k_0_s_2  OBJ       -1
    cum_prob_j_2_k_0_s_3  OBJ       -1
    cum_prob_j_2_k_0_s_3  prob_chain_j_2_s_3  -1
    cum_prob_j_2_k_0_s_4  OBJ       -1
    cum_prob_j_2_k_0_s_5  OBJ       -1
    cum_prob_j_2_k_0_s_6  OBJ       -1
    cum_prob_j_2_k_0_s_6  prob_chain_j_2_s_6  -1
    cum_prob_j_2_k_0_s_7  OBJ       -1
    cum_prob_j_2_k_0_s_8  OBJ       -1
    cum_prob_j_2_k_0_s_9  OBJ       -1
    cum_prob_j_2_k_0_s_9  prob_chain_j_2_s_9  -1
    cum_prob_j_2_k_0_s_10  OBJ       -1
    cum_prob_j_2_k_0_s_11  OBJ       -1
    cum_prob_j_2_k_0_s_12  OBJ       -1
    cum_prob_j_2_k_0_s_12  prob_chain_j_2_s_12  -1
    cum_prob_j_2_k_0_s_13  OBJ       -1
    cum_prob_j_2_k_0_s_14  OBJ       -1
    cum_prob_j_2_k_0_s_15  OBJ       -1
    cum_prob_j_2_k_0_s_15  prob_chain_j_2_s_15  -1
    cum_prob_j_2_k_0_s_16  OBJ       -1
    cum_prob_j_2_k_0_s_17  OBJ       -1
    cum_prob_j_2_k_0_s_18  OBJ       -1
    cum_prob_j_2_k_0_s_18  prob_chain_j_2_s_18  -1
    cum_prob_j_2_k_0_s_19  OBJ       -1
    cum_prob_j_2_k_0_s_20  OBJ       -1
    cum_prob_j_2_k_0_s_21  OBJ       -1
    cum_prob_j_2_k_0_s_21  prob_chain_j_2_s_21  -1
    cum_prob_j_2_k_0_s_22  OBJ       -1
    cum_prob_j_2_k_0_s_23  OBJ       -1
    cum_prob_j_2_k_0_s_24  OBJ       -1
    cum_prob_j_2_k_0_s_24  prob_chain_j_2_s_24  -1
    cum_prob_j_2_k_0_s_25  OBJ       -1
    cum_prob_j_2_k_0_s_26  OBJ       -1
    MARKER    'MARKER'                 'INTORG'
    allocVar_j_2_k_1  OBJ       0
    MARKER    'MARKER'                 'INTEND'
    cum_prob_j_2_k_1_s_0  OBJ       -1
    cum_prob_j_2_k_1_s_0  prob_chain_j_2_s_0  -1.0635208223532498e+01
    cum_prob_j_2_k_1_s_1  OBJ       -1
    cum_prob_j_2_k_1_s_1  prob_chain_j_2_s_1  -2.3517081334935321e+00
    cum_prob_j_2_k_1_s_2  OBJ       -1
    cum_prob_j_2_k_1_s_2  prob_chain_j_2_s_2  -2.0800838230519045e+00
    cum_prob_j_2_k_1_s_3  OBJ       -1
    cum_prob_j_2_k_1_s_3  prob_chain_j_2_s_3  -1.0635208223532498e+01
    cum_prob_j_2_k_1_s_4  OBJ       -1
    cum_prob_j_2_k_1_s_4  prob_chain_j_2_s_4  -2.3517081334935321e+00
    cum_prob_j_2_k_1_s_5  OBJ       -1
    cum_prob_j_2_k_1_s_5  prob_chain_j_2_s_5  -2.0800838230519045e+00
    cum_prob_j_2_k_1_s_6  OBJ       -1
    cum_prob_j_2_k_1_s_6  prob_chain_j_2_s_6  -1.0635208223532498e+01
    cum_prob_j_2_k_1_s_7  OBJ       -1
    cum_prob_j_2_k_1_s_7  prob_chain_j_2_s_7  -2.3517081334935321e+00
    cum_prob_j_2_k_1_s_8  OBJ       -1
    cum_prob_j_2_k_1_s_8  prob_chain_j_2_s_8  -2.0800838230519045e+00
    cum_prob_j_2_k_1_s_9  OBJ       -1
    cum_prob_j_2_k_1_s_9  prob_chain_j_2_s_9  -1.0635208223532498e+01
    cum_prob_j_2_k_1_s_10  OBJ       -1
    cum_prob_j_2_k_1_s_10  prob_chain_j_2_s_10  -2.3517081334935321e+00
    cum_prob_j_2_k_1_s_11  OBJ       -1
    cum_prob_j_2_k_1_s_11  prob_chain_j_2_s_11  -2.0800838230519045e+00
    cum_prob_j_2_k_1_s_12  OBJ       -1
    cum_prob_j_2_k_1_s_12  prob_chain_j_2_s_12  -1.0635208223532498e+01
    cum_prob_j_2_k_1_s_13  OBJ       -1
    cum_prob_j_2_k_1_s_13  prob_chain_j_2_s_13  -2.3517081334935321e+00
    cum_prob_j_2_k_1_s_14  OBJ       -1
    cum_prob_j_2_k_1_s_14  prob_chain_j_2_s_14  -2.0800838230519045e+00
    cum_prob_j_2_k_1_s_15  OBJ       -1
    cum_prob_j_2_k_1_s_15  prob_chain_j_2_s_15  -1.0635208223532498e+01
    cum_prob_j_2_k_1_s_16  OBJ       -1
    cum_prob_j_2_k_1_s_16  prob_chain_j_2_s_16  -2.3517081334935321e+00
    cum_prob_j_2_k_1_s_17  OBJ       -1
    cum_prob_j_2_k_1_s_17  prob_chain_j_2_s_17  -2.0800838230519045e+00
    cum_prob_j_2_k_1_s_18  OBJ       -1
    cum_prob_j_2_k_1_s_18  prob_chain_j_2_s_18  -1.0635208223532498e+01
    cum_prob_j_2_k_1_s_19  OBJ       -1
    cum_prob_j_2_k_1_s_19  prob_chain_j_2_s_19  -2.3517081334935321e+00
    cum_prob_j_2_k_1_s_20  OBJ       -1
    cum_prob_j_2_k_1_s_20  prob_chain_j_2_s_20  -2.0800838230519045e+00
    cum_prob_j_2_k_1_s_21  OBJ       -1
    cum_prob_j_2_k_1_s_21  prob_chain_j_2_s_21  -1.0635208223532498e+01
    cum_prob_j_2_k_1_s_22  OBJ       -1
    cum_prob_j_2_k_1_s_22  prob_chain_j_2_s_22  -2.3517081334935321e+00
    cum_prob_j_2_k_1_s_23  OBJ       -1
    cum_prob_j_2_k_1_s_23  prob_chain_j_2_s_23  -2.0800838230519045e+00
    cum_prob_j_2_k_1_s_24  OBJ       -1
    cum_prob_j_2_k_1_s_24  prob_chain_j_2_s_24  -1.0635208223532498e+01
    cum_prob_j_2_k_1_s_25  OBJ       -1
    cum_prob_j_2_k_1_s_25  prob_chain_j_2_s_25  -2.3517081334935321e+00
    cum_prob_j_2_k_1_s_26  OBJ       -1
    cum_prob_j_2_k_1_s_26  prob_chain_j_2_s_26  -2.0800838230519045e+00
    MARKER    'MARKER'                 'INTORG'
    allocVar_j_2_k_2  OBJ       0
    MARKER    'MARKER'                 'INTEND'
    cum_prob_j_2_k_2_s_0  OBJ       -1
    cum_prob_j_2_k_2_s_0  prob_chain_j_2_s_0  -6.2570787519631210e+01
    cum_prob_j_2_k_2_s_1  OBJ       -1
    cum_prob_j_2_k_2_s_1  prob_chain_j_2_s_1  -4.5274420609344483e+00
    cum_prob_j_2_k_2_s_2  OBJ       -1
    cum_prob_j_2_k_2_s_2  prob_chain_j_2_s_2  -1.3103706971044482e+00
    cum_prob_j_2_k_2_s_3  OBJ       -1
    cum_prob_j_2_k_2_s_3  prob_chain_j_2_s_3  -6.2570787519631210e+01
    cum_prob_j_2_k_2_s_4  OBJ       -1
    cum_prob_j_2_k_2_s_4  prob_chain_j_2_s_4  -4.5274420609344483e+00
    cum_prob_j_2_k_2_s_5  OBJ       -1
    cum_prob_j_2_k_2_s_5  prob_chain_j_2_s_5  -1.3103706971044482e+00
    cum_prob_j_2_k_2_s_6  OBJ       -1
    cum_prob_j_2_k_2_s_6  prob_chain_j_2_s_6  -6.2570787519631210e+01
    cum_prob_j_2_k_2_s_7  OBJ       -1
    cum_prob_j_2_k_2_s_7  prob_chain_j_2_s_7  -4.5274420609344483e+00
    cum_prob_j_2_k_2_s_8  OBJ       -1
    cum_prob_j_2_k_2_s_8  prob_chain_j_2_s_8  -1.3103706971044482e+00
    cum_prob_j_2_k_2_s_9  OBJ       -1
    cum_prob_j_2_k_2_s_9  prob_chain_j_2_s_9  -6.2570787519631210e+01
    cum_prob_j_2_k_2_s_10  OBJ       -1
    cum_prob_j_2_k_2_s_10  prob_chain_j_2_s_10  -4.5274420609344483e+00
    cum_prob_j_2_k_2_s_11  OBJ       -1
    cum_prob_j_2_k_2_s_11  prob_chain_j_2_s_11  -1.3103706971044482e+00
    cum_prob_j_2_k_2_s_12  OBJ       -1
    cum_prob_j_2_k_2_s_12  prob_chain_j_2_s_12  -6.2570787519631210e+01
    cum_prob_j_2_k_2_s_13  OBJ       -1
    cum_prob_j_2_k_2_s_13  prob_chain_j_2_s_13  -4.5274420609344483e+00
    cum_prob_j_2_k_2_s_14  OBJ       -1
    cum_prob_j_2_k_2_s_14  prob_chain_j_2_s_14  -1.3103706971044482e+00
    cum_prob_j_2_k_2_s_15  OBJ       -1
    cum_prob_j_2_k_2_s_15  prob_chain_j_2_s_15  -6.2570787519631210e+01
    cum_prob_j_2_k_2_s_16  OBJ       -1
    cum_prob_j_2_k_2_s_16  prob_chain_j_2_s_16  -4.5274420609344483e+00
    cum_prob_j_2_k_2_s_17  OBJ       -1
    cum_prob_j_2_k_2_s_17  prob_chain_j_2_s_17  -1.3103706971044482e+00
    cum_prob_j_2_k_2_s_18  OBJ       -1
    cum_prob_j_2_k_2_s_18  prob_chain_j_2_s_18  -6.2570787519631210e+01
    cum_prob_j_2_k_2_s_19  OBJ       -1
    cum_prob_j_2_k_2_s_19  prob_chain_j_2_s_19  -4.5274420609344483e+00
    cum_prob_j_2_k_2_s_20  OBJ       -1
    cum_prob_j_2_k_2_s_20  prob_chain_j_2_s_20  -1.3103706971044482e+00
    cum_prob_j_2_k_2_s_21  OBJ       -1
    cum_prob_j_2_k_2_s_21  prob_chain_j_2_s_21  -6.2570787519631210e+01
    cum_prob_j_2_k_2_s_22  OBJ       -1
    cum_prob_j_2_k_2_s_22  prob_chain_j_2_s_22  -4.5274420609344483e+00
    cum_prob_j_2_k_2_s_23  OBJ       -1
    cum_prob_j_2_k_2_s_23  prob_chain_j_2_s_23  -1.3103706971044482e+00
    cum_prob_j_2_k_2_s_24  OBJ       -1
    cum_prob_j_2_k_2_s_24  prob_chain_j_2_s_24  -6.2570787519631210e+01
    cum_prob_j_2_k_2_s_25  OBJ       -1
    cum_prob_j_2_k_2_s_25  prob_chain_j_2_s_25  -4.5274420609344483e+00
    cum_prob_j_2_k_2_s_26  OBJ       -1
    cum_prob_j_2_k_2_s_26  prob_chain_j_2_s_26  -1.3103706971044482e+00
RHS
BOUNDS
 BV BND1      allocVar_j_0_k_0
 BV BND1      allocVar_j_0_k_1
 BV BND1      allocVar_j_0_k_2
 BV BND1      allocVar_j_1_k_0
 BV BND1      allocVar_j_1_k_1
 BV BND1      allocVar_j_1_k_2
 BV BND1      allocVar_j_2_k_0
 BV BND1      allocVar_j_2_k_1
 BV BND1      allocVar_j_2_k_2
ENDATA
